instances/in_50_25_7_4.lp
#const n = 50.
#const k = 25.
#const h = 7.
tile(1,4,1).
tile(2,12,21).
tile(3,16,13).
tile(4,4,22).
tile(5,4,12).
tile(6,13,23).
tile(7,13,24).
tile(8,4,5).
tile(9,7,11).
tile(10,10,24).
tile(11,6,17).
tile(12,13,4).
tile(13,11,25).
tile(14,10,9).
tile(15,12,1).
tile(16,2,14).
tile(17,1,16).
tile(18,16,11).
tile(19,4,16).
tile(20,4,25).
tile(21,9,12).
tile(22,21,25).
tile(23,18,13).
tile(24,6,16).
tile(25,19,18).
tile(26,3,7).
tile(27,19,10).
tile(28,19,18).
tile(29,17,9).
tile(30,19,17).
tile(31,7,7).
tile(32,11,10).
tile(33,15,7).
tile(34,1,18).
tile(35,9,3).
tile(36,21,2).
tile(37,21,15).
tile(38,3,4).
tile(39,12,1).
tile(40,12,19).
tile(41,13,9).
tile(42,16,15).
tile(43,17,5).
tile(44,16,14).
tile(45,4,21).
tile(46,3,8).
tile(47,16,9).
tile(48,21,2).
tile(49,21,11).
tile(50,1,9).
