minizinc/input/in_50_25_7_4.dzn
n = 50;
k = 25;
h = 7;
tiles = array2d(1..n, 1..2,
[ 4,1
, 12,21
, 16,13
, 4,22
, 4,12
, 13,23
, 13,24
, 4,5
, 7,11
, 10,24
, 6,17
, 13,4
, 11,25
, 10,9
, 12,1
, 2,14
, 1,16
, 16,11
, 4,16
, 4,25
, 9,12
, 21,25
, 18,13
, 6,16
, 19,18
, 3,7
, 19,10
, 19,18
, 17,9
, 19,17
, 7,7
, 11,10
, 15,7
, 1,18
, 9,3
, 21,2
, 21,15
, 3,4
, 12,1
, 12,19
, 13,9
, 16,15
, 17,5
, 16,14
, 4,21
, 3,8
, 16,9
, 21,2
, 21,11
, 1,9
]);